10
12
17
19
10
15
20
14
17
17
16
12
17
7
19
1
5
19
8
7
16
15
5
14
5
7
5
6
10
16
4
18
14
1
4
17
5
7
7
9
6
15
2
8
5
8
5
3
14
10
17
11
6
11
20
3
15
7
1
5
14
1
6
9
5
2
20
20
19
3
3
2
12
16
15
14
16
20
20
20
7
9
15
13
7
15
8
20
11
13
17
5
19
10
1
3
19
11
16
16
11
19
19
1
10
4
18
9
9
9
11
18
10
16
2
9
3
14
12
16
10
4
18
15
20
18
5
13
19
7
17
19
6
18
7
1
6
12
9
17
12
1
3
18
16
6
5
18
5
5
5
9
11
14
7
7
2
17
9
10
14
7
2
15
7
8
1
15
5
8
12
8
6
20
7
15
12
7
13
9
6
3
15
20
11
11
13
8
4
5
14
4
12
15
16
4
8
2
15
19
